Route #1: 105 19 57 63 66 171 13 120 168 110 4 163 128 34 103 108 129 156 133 72 139 149 45 99 118 131
Route #2: 37 29 83 182 160 184 1 165 88 44 127 172
Route #3: 92 145 115 144 94 50 178 179 62 59 91 113 111 74 161 134 132 173 157 166 170
Route #4: 73 112 169 78 147 12 86 125 137 151 174 181 41 152 87 186 146 177 123 71 52 101 47 5 176 24 97 143 95
Route #5: 106 119 49 26 117 175 11 122 82 116 60 79 17 155 7 162 33 107 23 164 158 75 93 51 67 16 14 31
Route #6: 10 43 58 28 138 85 80 150 30 39 36 22 77 38 2 6 109 89 104 142 159
Route #7: 46 135 121 69 55 9 114 65 20 53 154 189 140 124 187 27 15 3 96 90 42 100 8 35 102
Route #8: 188 64 25 183 136 167 148 98 141 70 185 18 84 153 180 61 32 40 76 126 54 48 130 56 21 68 81
Cost 16984.000000